 $molecule
 0 1
 C 0 0 0
 C 0 0 1.24253
 $end
 
 $rem
 jobtype sp
 exchange hf
 basis sto-3g
 scf_convergence 11
 thresh 14
 $end

